22744
0 0 1 1 1 1 1 1 1 0 1 1 0 1 1 0 1 1 1 1 1 1 1 1 1 1 0 1 1 1 
18 19 21 27 2 6 21 27 22 28 4 28 13 13 28 18 3 20 22 27 18 16 5 24 10 18 27 19 29 2 19 19 4 16 27 6 20 8 24 16 18 8 6 4 8 19 13 21 19 14 24 16 24 16 8 6 11 8 18 25 29 2 7 8 13 11 5 14 28 25 18 6 19 8 23 23 20 23 8 16 10 17 8 25 29 13 6 5 27 7 28 6 25 25 2 3 11 6 17 28 28 21 25 18 4 24 4 24 22 3 19 4 27 6 11 8 28 7 17 8 14 11 17 19 4 16 2 11 19 17 28 24 25 20 23 8 3 3 28 10 11 22 11 11 25 5 24 21 27 25 24 17 23 17 8 11 2 16 3 13 13 27 10 24 5 27 5 4 3 21 5 20 19 14 4 2 24 10 29 10 5 21 2 19 11 8 28 23 17 21 2 21 6 4 7 6 7 21 10 19 
